************************************************************************
file with basedata            : cm242_.bas
initial value random generator: 525779660
************************************************************************
projects                      :  1
jobs (incl. supersource/sink ):  18
horizon                       :  121
RESOURCES
  - renewable                 :  2   R
  - nonrenewable              :  2   N
  - doubly constrained        :  0   D
************************************************************************
PROJECT INFORMATION:
pronr.  #jobs rel.date duedate tardcost  MPM-Time
    1     16      0       28        6       28
************************************************************************
PRECEDENCE RELATIONS:
jobnr.    #modes  #successors   successors
   1        1          3           2   3   4
   2        2          3           5   6  10
   3        2          2           6  11
   4        2          3           7   9  13
   5        2          3           8  12  17
   6        2          2          13  14
   7        2          2           8  12
   8        2          1          14
   9        2          2          11  15
  10        2          3          11  12  16
  11        2          1          17
  12        2          1          15
  13        2          2          16  17
  14        2          2          15  16
  15        2          1          18
  16        2          1          18
  17        2          1          18
  18        1          0        
************************************************************************
REQUESTS/DURATIONS:
jobnr. mode duration  R 1  R 2  N 1  N 2
------------------------------------------------------------------------
  1      1     0       0    0    0    0
  2      1     1       0    9   10    6
         2     3       0    7    7    4
  3      1     6       0    5    6    9
         2    10       4    0    3    6
  4      1     3       4    0    9    8
         2     6       0    8    9    5
  5      1     8       6    0    3    3
         2    10       0    8    1    3
  6      1     8       9    0    7    9
         2    10       0    2    4    9
  7      1     1       8    0    7    9
         2     9       5    0    7    7
  8      1     6       0   10    4    2
         2    10       8    0    2    1
  9      1     4       5    0    8    3
         2     5       5    0    5    1
 10      1     2       9    0    7    4
         2     8       9    0    4    3
 11      1     1       6    0    9    5
         2     9       3    0    9    2
 12      1     2       0    9    9    8
         2     7       0    3    6    8
 13      1     3       6    0    7    8
         2     5       0    9    3    7
 14      1     8       6    0    8    5
         2     8       0    3    8    7
 15      1     3       0    4    6   10
         2     4       6    0    4   10
 16      1     5       6    0    8    7
         2     8       1    0    4    2
 17      1     1       0    8    8    5
         2     9       8    0    7    4
 18      1     0       0    0    0    0
************************************************************************
RESOURCEAVAILABILITIES:
  R 1  R 2  N 1  N 2
   16   15  100   90
************************************************************************
